language ESSENCE' 1.0

letting network_ExplicitWithRepetitionR6_Flag be 4
letting network_ExplicitWithRepetitionR6_Values_ExplicitVarSizeWithDummy be
        [[1, 2, 4, 6; int(1..4)], [1, 3, 6, 7; int(1..4)], [8, 8, 8, 8; int(1..4)], [8, 8, 8, 8; int(1..4)]; int(1..4)]
$ Visualisation for network_ExplicitWithRepetitionR6_Values_ExplicitVarSizeWithDummy
$ 1 2 4 6
$ 1 3 6 7
$ 8 8 8 8
$ 8 8 8 8

